Assets/LKHProbs~/skull.51.tsp
NAME : GeneratedProblem
COMMENT : SVGCrosshatch
TYPE : TSP
DIMENSION : 24
EDGE_WEIGHT_TYPE : EUC_2D
NODE_COORD_SECTION
1 6900 8300
2 6900 8400
3 7000 8300
4 7000 8400
5 7000 8500
6 7000 8600
7 7100 8300
8 7100 8400
9 7100 8500
10 7100 8600
11 7100 8700
12 7100 8800
13 7200 8300
14 7200 8400
15 7200 8500
16 7200 8600
17 7200 8700
18 7200 8800
19 7300 8300
20 7300 8400
21 7300 8500
22 7300 8600
23 7400 8300
24 7400 8400
EOF
