Assets/LKHProbs~/skull.51.out.txt
NAME : GeneratedProblem.2400.tour
COMMENT : Length = 2400
COMMENT : Found by LKH [Keld Helsgaun] Sun Nov 25 13:17:39 2018
TYPE : TOUR
DIMENSION : 24
TOUR_SECTION
1
2
4
5
6
10
11
12
18
17
16
22
21
15
9
8
14
20
24
23
19
13
7
3
-1
EOF
